
Gurobi 12.0.3 (win64, gurobi_cl) logging started Thu Jul 24 10:57:21 2025

Set parameter Username
Set parameter LicenseID to value 2688875
Set parameter LogFile to value "gurobi.log"
Using license file C:\Users\1496051\gurobi.lic
Academic license - for non-commercial use only - expires 2026-07-17

Gurobi Optimizer version 12.0.3 build v12.0.3rc0 (win64 - Windows 11.0 (22631.2))
Copyright (c) 2025, Gurobi Optimization, LLC

Read LP format model from file my_saved_model.lp
Reading time = 2.18 seconds
: 2053231 rows, 1454848 columns, 5106226 nonzeros

Using Gurobi shared library C:\Users\1496051\.local\share\mamba\envs\calliope_env_py311\gurobi120.dll

CPU model: Intel(R) Core(TM) Ultra 5 125U, instruction set [SSE2|AVX|AVX2]
Thread count: 12 physical cores, 14 logical processors, using up to 14 threads

Optimize a model with 2053231 rows, 1454848 columns and 5106226 nonzeros
Model fingerprint: 0x6f112226
Coefficient statistics:
  Matrix range     [1e-04, 1e+00]
  Objective range  [2e-01, 1e+06]
  Bounds range     [2e-03, 4e+04]
  RHS range        [1e-03, 2e+04]
Presolve removed 921273 rows and 445171 columns
Presolve time: 0.31s

Solved in 0 iterations and 0.31 seconds (0.35 work units)
Infeasible model

Using Gurobi shared library C:\Users\1496051\.local\share\mamba\envs\calliope_env_py311\gurobi120.dll

CPU model: Intel(R) Core(TM) Ultra 5 125U, instruction set [SSE2|AVX|AVX2]
Thread count: 12 physical cores, 14 logical processors, using up to 14 threads


IIS computed: 1 constraints and 1 bounds
IIS runtime: 0.07 seconds (0.00 work units)

Wrote result file 'result.ilp'


Gurobi 12.0.3 (win64, gurobi_cl) logging started Thu Jul 24 16:55:45 2025

Set parameter Username
Set parameter LicenseID to value 2688875
Set parameter LogFile to value "gurobi.log"
Using license file C:\Users\1496051\gurobi.lic
Academic license - for non-commercial use only - expires 2026-07-17

Gurobi Optimizer version 12.0.3 build v12.0.3rc0 (win64 - Windows 11.0 (22631.2))
Copyright (c) 2025, Gurobi Optimization, LLC

Read LP format model from file my_saved_model.lp
Reading time = 6.84 seconds
: 2712535 rows, 1876696 columns, 6694018 nonzeros

Using Gurobi shared library C:\Users\1496051\.local\share\mamba\envs\calliope_env_py311\gurobi120.dll

CPU model: Intel(R) Core(TM) Ultra 5 125U, instruction set [SSE2|AVX|AVX2]
Thread count: 12 physical cores, 14 logical processors, using up to 14 threads

Optimize a model with 2712535 rows, 1876696 columns and 6694018 nonzeros
Model fingerprint: 0x5d5c4515
Coefficient statistics:
  Matrix range     [1e-04, 3e+00]
  Objective range  [2e-01, 1e+06]
  Bounds range     [2e-03, 4e+04]
  RHS range        [1e-03, 2e+04]
Presolve removed 1188897 rows and 574321 columns
Presolve time: 1.32s

Solved in 0 iterations and 1.32 seconds (0.46 work units)
Infeasible model

Using Gurobi shared library C:\Users\1496051\.local\share\mamba\envs\calliope_env_py311\gurobi120.dll

CPU model: Intel(R) Core(TM) Ultra 5 125U, instruction set [SSE2|AVX|AVX2]
Thread count: 12 physical cores, 14 logical processors, using up to 14 threads


IIS computed: 2 constraints and 0 bounds
IIS runtime: 0.24 seconds (0.00 work units)

Wrote result file 'result.ilp'


Gurobi 12.0.3 (win64, gurobi_cl) logging started Fri Jul 25 14:34:17 2025

Set parameter Username
Set parameter LicenseID to value 2688875
Set parameter LogFile to value "gurobi.log"
Using license file C:\Users\1496051\gurobi.lic
Academic license - for non-commercial use only - expires 2026-07-17

Gurobi 12.0.3 (win64, gurobi_cl) logging started Fri Jul 25 14:34:43 2025

Set parameter Username
Set parameter LicenseID to value 2688875
Set parameter LogFile to value "gurobi.log"
Using license file C:\Users\1496051\gurobi.lic
Academic license - for non-commercial use only - expires 2026-07-17

Gurobi Optimizer version 12.0.3 build v12.0.3rc0 (win64 - Windows 11.0 (22631.2))
Copyright (c) 2025, Gurobi Optimization, LLC

Read LP format model from file my_saved_model.lp
Reading time = 25.75 seconds
: 2691415 rows, 1876696 columns, 6662338 nonzeros

Using Gurobi shared library C:\Users\1496051\.local\share\mamba\envs\calliope_env_py311\gurobi120.dll

CPU model: Intel(R) Core(TM) Ultra 5 125U, instruction set [SSE2|AVX|AVX2]
Thread count: 12 physical cores, 14 logical processors, using up to 14 threads

Optimize a model with 2691415 rows, 1876696 columns and 6662338 nonzeros
Model fingerprint: 0x9d6d920d
Coefficient statistics:
  Matrix range     [1e-04, 3e+00]
  Objective range  [2e-01, 1e+06]
  Bounds range     [2e-03, 4e+04]
  RHS range        [1e-03, 2e+04]
Presolve removed 1188897 rows and 574339 columns
Presolve time: 0.90s

Solved in 0 iterations and 0.90 seconds (0.46 work units)
Infeasible model

Using Gurobi shared library C:\Users\1496051\.local\share\mamba\envs\calliope_env_py311\gurobi120.dll

CPU model: Intel(R) Core(TM) Ultra 5 125U, instruction set [SSE2|AVX|AVX2]
Thread count: 12 physical cores, 14 logical processors, using up to 14 threads


IIS computed: 2 constraints and 0 bounds
IIS runtime: 0.19 seconds (0.00 work units)

Wrote result file 'result.ilp'


Gurobi 12.0.3 (win64, gurobi_cl) logging started Fri Jul 25 16:38:06 2025

Set parameter Username
Set parameter LicenseID to value 2688875
Set parameter LogFile to value "gurobi.log"
Using license file C:\Users\1496051\gurobi.lic
Academic license - for non-commercial use only - expires 2026-07-17

Gurobi Optimizer version 12.0.3 build v12.0.3rc0 (win64 - Windows 11.0 (22631.2))
Copyright (c) 2025, Gurobi Optimization, LLC

Read LP format model from file my_saved_model.lp
Reading time = 92.94 seconds
: 8121055 rows, 5324976 columns, 19786818 nonzeros

Using Gurobi shared library C:\Users\1496051\.local\share\mamba\envs\calliope_env_py311\gurobi120.dll

CPU model: Intel(R) Core(TM) Ultra 5 125U, instruction set [SSE2|AVX|AVX2]
Thread count: 12 physical cores, 14 logical processors, using up to 14 threads

Optimize a model with 8121055 rows, 5324976 columns and 19786818 nonzeros
Model fingerprint: 0x7361e8f7
Coefficient statistics:
  Matrix range     [1e-04, 3e+00]
  Objective range  [2e-01, 2e+06]
  Bounds range     [2e-03, 4e+04]
  RHS range        [1e-03, 2e+04]
Presolve removed 4763470 rows and 2322928 columns (presolve time = 5s)...
Presolve removed 5950902 rows and 3560000 columns (presolve time = 10s)...
Presolve removed 6393059 rows and 4002157 columns (presolve time = 15s)...
Presolve removed 6673392 rows and 4142732 columns (presolve time = 21s)...
Presolve removed 6673392 rows and 4142732 columns
Presolve time: 21.62s
Presolved: 1447663 rows, 1182244 columns, 4608698 nonzeros

Concurrent LP optimizer: primal simplex, dual simplex, and barrier
Showing barrier log only...


Barrier performed 0 iterations in 23.58 seconds (13.21 work units)
Barrier solve interrupted - model solved by another algorithm

Warning: Possible non-determinism after error

Out of memory

Error 10001: Out of memory


Gurobi 12.0.3 (win64, gurobi_cl) logging started Fri Jul 25 16:40:26 2025

Set parameter Username
Set parameter LicenseID to value 2688875
Set parameter LogFile to value "gurobi.log"
Using license file C:\Users\1496051\gurobi.lic
Academic license - for non-commercial use only - expires 2026-07-17

Gurobi Optimizer version 12.0.3 build v12.0.3rc0 (win64 - Windows 11.0 (22631.2))
Copyright (c) 2025, Gurobi Optimization, LLC

Read LP format model from file my_saved_model.lp
Reading time = 87.65 seconds
: 8121055 rows, 5324976 columns, 19786818 nonzeros

Using Gurobi shared library C:\Users\1496051\.local\share\mamba\envs\calliope_env_py311\gurobi120.dll

CPU model: Intel(R) Core(TM) Ultra 5 125U, instruction set [SSE2|AVX|AVX2]
Thread count: 12 physical cores, 14 logical processors, using up to 14 threads

Optimize a model with 8121055 rows, 5324976 columns and 19786818 nonzeros
Model fingerprint: 0x7361e8f7
Coefficient statistics:
  Matrix range     [1e-04, 3e+00]
  Objective range  [2e-01, 2e+06]
  Bounds range     [2e-03, 4e+04]
  RHS range        [1e-03, 2e+04]
Presolve removed 4763470 rows and 2322928 columns (presolve time = 5s)...
Presolve removed 6340902 rows and 3950000 columns (presolve time = 10s)...
Presolve removed 6393059 rows and 4002157 columns (presolve time = 16s)...
Presolve removed 6673392 rows and 4142732 columns
Presolve time: 20.64s
Presolved: 1447663 rows, 1182244 columns, 4608698 nonzeros

Concurrent LP optimizer: primal simplex, dual simplex, and barrier
Showing barrier log only...

Ordering time: 3.54s

Barrier performed 0 iterations in 25.86 seconds (13.33 work units)
Barrier solve interrupted - model solved by another algorithm


Solved with dual simplex
Iteration    Objective       Primal Inf.    Dual Inf.      Time
       0    1.3156777e+09   0.000000e+00   0.000000e+00     33s

Solved in 0 iterations and 32.68 seconds (16.54 work units)
Optimal objective  1.315677688e+09

Gurobi 12.0.3 (win64, gurobi_cl) logging started Sat Aug 16 16:46:12 2025

Set parameter Username
Set parameter LicenseID to value 2688875
Set parameter LogFile to value "gurobi.log"
Using license file C:\Users\1496051\gurobi.lic
Academic license - for non-commercial use only - expires 2026-07-17

Gurobi Optimizer version 12.0.3 build v12.0.3rc0 (win64 - Windows 11.0 (22631.2))
Copyright (c) 2025, Gurobi Optimization, LLC

Read LP format model from file my_saved_model.lp
Reading time = 1.47 seconds
: 374442 rows, 237518 columns, 887153 nonzeros

Using Gurobi shared library C:\Users\1496051\.local\share\mamba\envs\calliope_env_py311\gurobi120.dll

CPU model: Intel(R) Core(TM) Ultra 5 125U, instruction set [SSE2|AVX|AVX2]
Thread count: 12 physical cores, 14 logical processors, using up to 14 threads

Optimize a model with 374442 rows, 237518 columns and 887153 nonzeros
Model fingerprint: 0x8e503038
Coefficient statistics:
  Matrix range     [1e-03, 4e+08]
  Objective range  [2e-01, 1e+09]
  Bounds range     [6e-02, 1e+05]
  RHS range        [7e-01, 2e+10]
Warning: Model contains large matrix coefficients
Warning: Model contains large rhs
         Consider reformulating model or setting NumericFocus parameter
         to avoid numerical issues.
Presolve removed 374442 rows and 237518 columns
Presolve time: 0.19s
Presolve: All rows and columns removed
Iteration    Objective       Primal Inf.    Dual Inf.      Time
       0    5.9865783e+07   0.000000e+00   0.000000e+00      0s

Solved in 0 iterations and 0.33 seconds (0.26 work units)
Optimal objective  5.986578297e+07

No IIS available for current model


Gurobi 12.0.3 (win64, gurobi_cl) logging started Sat Aug 16 19:20:53 2025

Set parameter Username
Set parameter LicenseID to value 2688875
Set parameter LogFile to value "gurobi.log"
Using license file C:\Users\1496051\gurobi.lic
Academic license - for non-commercial use only - expires 2026-07-17

Gurobi Optimizer version 12.0.3 build v12.0.3rc0 (win64 - Windows 11.0 (22631.2))
Copyright (c) 2025, Gurobi Optimization, LLC

Read LP format model from file my_saved_model.lp
Reading time = 0.35 seconds
: 374507 rows, 221984 columns, 867830 nonzeros

Using Gurobi shared library C:\Users\1496051\.local\share\mamba\envs\calliope_env_py311\gurobi120.dll

CPU model: Intel(R) Core(TM) Ultra 5 125U, instruction set [SSE2|AVX|AVX2]
Thread count: 12 physical cores, 14 logical processors, using up to 14 threads

Optimize a model with 374507 rows, 221984 columns and 867830 nonzeros
Model fingerprint: 0xf71d1c68
Coefficient statistics:
  Matrix range     [1e-03, 4e+08]
  Objective range  [2e-01, 6e+04]
  Bounds range     [6e-02, 1e+05]
  RHS range        [7e-01, 5e+04]
Warning: Model contains large matrix coefficients
         Consider reformulating model or setting NumericFocus parameter
         to avoid numerical issues.
Presolve removed 374507 rows and 221984 columns
Presolve time: 0.11s
Presolve: All rows and columns removed
Iteration    Objective       Primal Inf.    Dual Inf.      Time
       0    6.4658587e+07   0.000000e+00   0.000000e+00      0s

Solved in 0 iterations and 0.23 seconds (0.25 work units)
Optimal objective  6.465858708e+07

No IIS available for current model


Gurobi 12.0.3 (win64, gurobi_cl) logging started Sat Aug 16 19:21:33 2025

Set parameter Username
Set parameter LicenseID to value 2688875
Set parameter LogFile to value "gurobi.log"
Using license file C:\Users\1496051\gurobi.lic
Academic license - for non-commercial use only - expires 2026-07-17

Gurobi Optimizer version 12.0.3 build v12.0.3rc0 (win64 - Windows 11.0 (22631.2))
Copyright (c) 2025, Gurobi Optimization, LLC

Read LP format model from file my_saved_model.lp
Reading time = 0.40 seconds
: 374507 rows, 221984 columns, 867830 nonzeros

Using Gurobi shared library C:\Users\1496051\.local\share\mamba\envs\calliope_env_py311\gurobi120.dll

CPU model: Intel(R) Core(TM) Ultra 5 125U, instruction set [SSE2|AVX|AVX2]
Thread count: 12 physical cores, 14 logical processors, using up to 14 threads

Optimize a model with 374507 rows, 221984 columns and 867830 nonzeros
Model fingerprint: 0xf71d1c68
Coefficient statistics:
  Matrix range     [1e-03, 4e+08]
  Objective range  [2e-01, 6e+04]
  Bounds range     [6e-02, 1e+05]
  RHS range        [7e-01, 5e+04]
Warning: Model contains large matrix coefficients
         Consider reformulating model or setting NumericFocus parameter
         to avoid numerical issues.
Presolve removed 374507 rows and 221984 columns
Presolve time: 0.11s
Presolve: All rows and columns removed
Iteration    Objective       Primal Inf.    Dual Inf.      Time
       0    6.4658587e+07   0.000000e+00   0.000000e+00      0s

Solved in 0 iterations and 0.23 seconds (0.25 work units)
Optimal objective  6.465858708e+07

No IIS available for current model


Gurobi 12.0.3 (win64, gurobi_cl) logging started Fri Aug 22 13:04:01 2025

Set parameter Username
Set parameter LicenseID to value 2688875
Set parameter LogFile to value "gurobi.log"
Using license file C:\Users\1496051\gurobi.lic
Academic license - for non-commercial use only - expires 2026-07-17

Gurobi Optimizer version 12.0.3 build v12.0.3rc0 (win64 - Windows 11.0 (22631.2))
Copyright (c) 2025, Gurobi Optimization, LLC

Read LP format model from file my_saved_model.lp
Reading time = 1.34 seconds
: 369322 rows, 220642 columns, 998485 nonzeros

Using Gurobi shared library C:\Users\1496051\.local\share\mamba\envs\calliope_env_py311\gurobi120.dll

CPU model: Intel(R) Core(TM) Ultra 5 125U, instruction set [SSE2|AVX|AVX2]
Thread count: 12 physical cores, 14 logical processors, using up to 14 threads

Optimize a model with 369322 rows, 220642 columns and 998485 nonzeros
Model fingerprint: 0x64b7d518
Coefficient statistics:
  Matrix range     [1e-03, 4e+08]
  Objective range  [2e-01, 6e+04]
  Bounds range     [3e-01, 1e+05]
  RHS range        [7e-01, 2e+10]
Warning: Model contains large matrix coefficients
Warning: Model contains large rhs
         Consider reformulating model or setting NumericFocus parameter
         to avoid numerical issues.
Presolve time: 0.03s

Solved in 0 iterations and 0.03 seconds (0.03 work units)
Infeasible model

Using Gurobi shared library C:\Users\1496051\.local\share\mamba\envs\calliope_env_py311\gurobi120.dll

CPU model: Intel(R) Core(TM) Ultra 5 125U, instruction set [SSE2|AVX|AVX2]
Thread count: 12 physical cores, 14 logical processors, using up to 14 threads


IIS computed: 1 constraints and 0 bounds
IIS runtime: 0.01 seconds (0.00 work units)

Wrote result file 'result.ilp'


Gurobi 12.0.3 (win64, gurobi_cl) logging started Fri Aug 22 13:44:10 2025

Set parameter Username
Set parameter LicenseID to value 2688875
Set parameter LogFile to value "gurobi.log"
Using license file C:\Users\1496051\gurobi.lic
Academic license - for non-commercial use only - expires 2026-07-17

Gurobi Optimizer version 12.0.3 build v12.0.3rc0 (win64 - Windows 11.0 (22631.2))
Copyright (c) 2025, Gurobi Optimization, LLC

Read LP format model from file my_saved_model.lp
Reading time = 1.32 seconds
: 369322 rows, 220642 columns, 998485 nonzeros

Using Gurobi shared library C:\Users\1496051\.local\share\mamba\envs\calliope_env_py311\gurobi120.dll

CPU model: Intel(R) Core(TM) Ultra 5 125U, instruction set [SSE2|AVX|AVX2]
Thread count: 12 physical cores, 14 logical processors, using up to 14 threads

Optimize a model with 369322 rows, 220642 columns and 998485 nonzeros
Model fingerprint: 0x64b7d518
Coefficient statistics:
  Matrix range     [1e-03, 4e+08]
  Objective range  [2e-01, 6e+04]
  Bounds range     [3e-01, 1e+05]
  RHS range        [7e-01, 2e+10]
Warning: Model contains large matrix coefficients
Warning: Model contains large rhs
         Consider reformulating model or setting NumericFocus parameter
         to avoid numerical issues.
Presolve time: 0.03s

Solved in 0 iterations and 0.03 seconds (0.03 work units)
Infeasible model

Using Gurobi shared library C:\Users\1496051\.local\share\mamba\envs\calliope_env_py311\gurobi120.dll

CPU model: Intel(R) Core(TM) Ultra 5 125U, instruction set [SSE2|AVX|AVX2]
Thread count: 12 physical cores, 14 logical processors, using up to 14 threads


IIS computed: 1 constraints and 0 bounds
IIS runtime: 0.02 seconds (0.00 work units)

Wrote result file 'result.ilp'


Gurobi 12.0.3 (win64, gurobi_cl) logging started Fri Aug 22 14:06:12 2025

Set parameter Username
Set parameter LicenseID to value 2688875
Set parameter LogFile to value "gurobi.log"
Using license file C:\Users\1496051\gurobi.lic
Academic license - for non-commercial use only - expires 2026-07-17

Gurobi Optimizer version 12.0.3 build v12.0.3rc0 (win64 - Windows 11.0 (22631.2))
Copyright (c) 2025, Gurobi Optimization, LLC

Read LP format model from file my_saved_model.lp
Reading time = 0.67 seconds
: 369322 rows, 220642 columns, 2780365 nonzeros

Using Gurobi shared library C:\Users\1496051\.local\share\mamba\envs\calliope_env_py311\gurobi120.dll

CPU model: Intel(R) Core(TM) Ultra 5 125U, instruction set [SSE2|AVX|AVX2]
Thread count: 12 physical cores, 14 logical processors, using up to 14 threads

Optimize a model with 369322 rows, 220642 columns and 2780365 nonzeros
Model fingerprint: 0x7a0ddd6f
Coefficient statistics:
  Matrix range     [1e-03, 4e+08]
  Objective range  [2e-01, 6e+04]
  Bounds range     [3e-01, 1e+05]
  RHS range        [7e-01, 2e+10]
Warning: Model contains large matrix coefficients
Warning: Model contains large rhs
         Consider reformulating model or setting NumericFocus parameter
         to avoid numerical issues.
Presolve removed 254862 rows and 122984 columns
Presolve time: 0.41s
Presolved: 114460 rows, 97658 columns, 429624 nonzeros

Concurrent LP optimizer: primal simplex, dual simplex, and barrier
Showing barrier log only...


Barrier performed 0 iterations in 0.51 seconds (1.03 work units)
Barrier solve interrupted - model solved by another algorithm


Solved with dual simplex
Iteration    Objective       Primal Inf.    Dual Inf.      Time
    1250    6.4658587e+07   0.000000e+00   0.000000e+00      1s

Solved in 1250 iterations and 0.72 seconds (1.18 work units)
Optimal objective  6.465858708e+07

No IIS available for current model


Gurobi 12.0.3 (win64, gurobi_cl) logging started Fri Aug 22 14:06:26 2025

Set parameter Username
Set parameter LicenseID to value 2688875
Set parameter LogFile to value "gurobi.log"
Using license file C:\Users\1496051\gurobi.lic
Academic license - for non-commercial use only - expires 2026-07-17

Gurobi Optimizer version 12.0.3 build v12.0.3rc0 (win64 - Windows 11.0 (22631.2))
Copyright (c) 2025, Gurobi Optimization, LLC

Read LP format model from file my_saved_model.lp
Reading time = 0.67 seconds
: 369322 rows, 220642 columns, 2780365 nonzeros

Using Gurobi shared library C:\Users\1496051\.local\share\mamba\envs\calliope_env_py311\gurobi120.dll

CPU model: Intel(R) Core(TM) Ultra 5 125U, instruction set [SSE2|AVX|AVX2]
Thread count: 12 physical cores, 14 logical processors, using up to 14 threads

Optimize a model with 369322 rows, 220642 columns and 2780365 nonzeros
Model fingerprint: 0x7a0ddd6f
Coefficient statistics:
  Matrix range     [1e-03, 4e+08]
  Objective range  [2e-01, 6e+04]
  Bounds range     [3e-01, 1e+05]
  RHS range        [7e-01, 2e+10]
Warning: Model contains large matrix coefficients
Warning: Model contains large rhs
         Consider reformulating model or setting NumericFocus parameter
         to avoid numerical issues.
Presolve removed 254862 rows and 122984 columns
Presolve time: 0.41s
Presolved: 114460 rows, 97658 columns, 429624 nonzeros

Concurrent LP optimizer: primal simplex, dual simplex, and barrier
Showing barrier log only...


Barrier performed 0 iterations in 0.51 seconds (1.03 work units)
Barrier solve interrupted - model solved by another algorithm


Solved with dual simplex
Iteration    Objective       Primal Inf.    Dual Inf.      Time
    1250    6.4658587e+07   0.000000e+00   0.000000e+00      1s

Solved in 1250 iterations and 0.70 seconds (1.18 work units)
Optimal objective  6.465858708e+07

No IIS available for current model


Gurobi 12.0.3 (win64, gurobi_cl) logging started Sun Aug 24 00:26:20 2025

Set parameter Username
Set parameter LicenseID to value 2688875
Set parameter LogFile to value "gurobi.log"
Using license file C:\Users\1496051\gurobi.lic
Academic license - for non-commercial use only - expires 2026-07-17

Gurobi Optimizer version 12.0.3 build v12.0.3rc0 (win64 - Windows 11.0 (22631.2))
Copyright (c) 2025, Gurobi Optimization, LLC

Read LP format model from file my_saved_model.lp
Reading time = 0.42 seconds
: 243737 rows, 145962 columns, 584218 nonzeros

Using Gurobi shared library C:\Users\1496051\.local\share\mamba\envs\calliope_env_py311\gurobi120.dll

CPU model: Intel(R) Core(TM) Ultra 5 125U, instruction set [SSE2|AVX|AVX2]
Thread count: 12 physical cores, 14 logical processors, using up to 14 threads

Optimize a model with 243737 rows, 145962 columns and 584218 nonzeros
Model fingerprint: 0xfda7103c
Coefficient statistics:
  Matrix range     [1e-03, 4e+08]
  Objective range  [2e-01, 6e+04]
  Bounds range     [7e-01, 2e+04]
  RHS range        [7e-01, 5e+04]
Warning: Model contains large matrix coefficients
         Consider reformulating model or setting NumericFocus parameter
         to avoid numerical issues.
Presolve removed 159192 rows and 76098 columns
Presolve time: 0.29s
Presolved: 84545 rows, 69864 columns, 249988 nonzeros

Concurrent LP optimizer: primal simplex, dual simplex, and barrier
Showing barrier log only...

Ordering time: 0.23s

Barrier statistics:
 Dense cols : 314
 AA' NZ     : 1.191e+06
 Factor NZ  : 3.528e+06 (roughly 90 MB of memory)
 Factor Ops : 4.687e+08 (less than 1 second per iteration)
 Threads    : 10

                  Objective                Residual
Iter       Primal          Dual         Primal    Dual     Compl     Time
   0   3.68457461e+12 -4.28853175e+13  8.00e+07 4.05e+02  2.47e+10     1s
   1   4.23127510e+12 -2.50713667e+13  6.11e+07 1.88e+03  1.28e+10     1s
   2   4.48660302e+12 -1.29456317e+13  2.19e+07 3.99e+02  4.34e+09     1s
   3   3.18037149e+12 -9.07031830e+12  3.81e+06 2.09e+02  1.36e+09     1s
   4   2.42023467e+12 -1.90566889e+12  5.88e+05 5.77e+00  1.28e+08     1s
   5   1.10692877e+12 -8.11765826e+11  1.09e+05 1.66e+00  2.99e+07     1s
   6   5.18132150e+11 -4.87919458e+11  3.65e+04 7.56e-01  1.18e+07     1s
   7   2.01406904e+11 -3.02325795e+11  1.03e+04 4.00e-01  4.54e+06     1s
   8   7.50928726e+10 -1.62018348e+11  2.77e+03 1.74e-01  1.78e+06     1s
   9   2.31738299e+10 -7.96928515e+10  4.76e+02 6.71e-02  6.81e+05     1s
  10   1.14397324e+10 -4.27039418e+10  1.44e+02 2.51e-02  3.45e+05     1s
  11   6.00094629e+09 -1.14702697e+10  5.24e+01 6.66e-03  1.08e+05     2s
  12   1.28969324e+09 -4.25576858e+09  4.53e+00 2.53e-03  3.34e+04     2s
  13   5.59877213e+08 -1.46463628e+09  1.28e+00 8.26e-04  1.21e+04     2s
  14   3.09043976e+08 -6.00205407e+08  4.63e-01 3.40e-04  5.40e+03     2s
  15   1.39650672e+08 -1.80827274e+08  3.08e-02 1.17e-04  1.90e+03     2s
  16   9.56387402e+07  4.76856548e+06  1.89e-03 2.69e-05  5.37e+02     2s
  17   9.14945068e+07  3.68517806e+07  1.43e-03 1.40e-05  3.23e+02     2s
  18   8.89940205e+07  5.03851250e+07  1.23e-03 7.65e-06  2.27e+02     2s
  19   7.76520183e+07  6.00634666e+07  4.29e-04 3.84e-06  1.04e+02     2s
  20   7.36104917e+07  6.34209194e+07  1.86e-04 2.48e-06  6.03e+01     2s
  21   7.26822051e+07  6.62553993e+07  1.36e-04 1.45e-06  3.80e+01     2s
  22   7.24452367e+07  6.74601592e+07  1.24e-04 1.00e-06  2.94e+01     2s
  23   7.15371463e+07  6.82189354e+07  7.84e-05 6.72e-07  1.96e+01     2s
  24   7.08009386e+07  6.85791913e+07  4.19e-05 5.22e-07  1.31e+01     2s
  25   7.05355477e+07  6.90507007e+07  2.91e-05 3.41e-07  8.78e+00     2s
  26   7.02939794e+07  6.92741991e+07  1.78e-05 2.46e-07  6.04e+00     3s
  27   7.01459687e+07  6.94052987e+07  1.12e-05 1.90e-07  4.39e+00     3s
  28   7.00575406e+07  6.94754148e+07  7.47e-06 1.61e-07  3.46e+00     3s
  29   7.00048947e+07  6.96250461e+07  5.34e-06 1.01e-07  2.25e+00     3s
  30   6.99488527e+07  6.96931907e+07  3.20e-06 7.20e-08  1.52e+00     3s
  31   6.99112111e+07  6.97217273e+07  1.90e-06 5.92e-08  1.13e+00     3s
  32   6.99031169e+07  6.97654213e+07  1.59e-06 3.99e-08  8.19e-01     3s
  33   6.98949372e+07  6.97899493e+07  1.29e-06 2.89e-08  6.24e-01     4s
  34   6.98768041e+07  6.98020910e+07  6.81e-07 2.36e-08  4.45e-01     4s
  35   6.98694213e+07  6.98241770e+07  4.10e-07 1.42e-08  2.70e-01     4s
  36   6.98649271e+07  6.98364655e+07  2.59e-07 8.87e-09  1.70e-01     4s
  37   6.98612603e+07  6.98413922e+07  1.40e-07 6.61e-09  1.19e-01     4s
  38   6.98603076e+07  6.98471180e+07  1.11e-07 4.01e-09  7.86e-02     4s
  39   6.98586182e+07  6.98516673e+07  6.31e-08 1.91e-09  4.14e-02     4s
  40   6.98563953e+07  6.98551217e+07  1.72e-08 3.70e-10  7.60e-03     5s
  41   6.98560891e+07  6.98557578e+07  5.59e-09 9.08e-11  1.98e-03     5s
  42   6.98560316e+07  6.98558812e+07  2.79e-09 3.68e-11  8.96e-04     5s
  43   6.98559784e+07  6.98559516e+07  6.85e-08 6.58e-12  1.60e-04     5s
  44   6.98559715e+07  6.98559606e+07  6.50e-06 6.78e-11  6.55e-05     5s
  45   6.98559697e+07  6.98559650e+07  4.42e-05 1.50e-10  2.82e-05     5s
  46   6.98559684e+07  6.98559671e+07  1.08e-05 1.46e-10  7.62e-06     6s
  47   6.98559679e+07  6.98559678e+07  3.39e-06 5.84e-11  8.42e-07     6s
  48   6.98559679e+07  6.98559678e+07  1.20e-06 2.24e-11  2.83e-07     6s
  49   6.98559679e+07  6.98559678e+07  1.99e-07 5.01e-11  7.44e-08     6s
  50   6.98559679e+07  6.98559678e+07  6.80e-08 4.80e-11  2.87e-08     6s
  51   6.98559679e+07  6.98559679e+07  5.68e-08 8.15e-11  1.21e-08     6s
  52   6.98559679e+07  6.98559679e+07  3.77e-08 2.57e-10  1.15e-09     6s

Barrier solved model in 52 iterations and 6.41 seconds (3.82 work units)
Optimal objective 6.98559679e+07

Crossover log...

   79731 DPushes remaining with DInf 7.6269936e-03                 7s
       0 DPushes remaining with DInf 0.0000000e+00                 7s

    2305 PPushes remaining with PInf 7.1027711e-05                 7s
       0 PPushes remaining with PInf 0.0000000e+00                 7s

  Push phase complete: Pinf 0.0000000e+00, Dinf 3.7443904e-01      7s

Iteration    Objective       Primal Inf.    Dual Inf.      Time
   39526    6.9855968e+07   0.000000e+00   3.744390e-01      7s

Solved with primal simplex
Extra simplex iterations after uncrush: 116
Iteration    Objective       Primal Inf.    Dual Inf.      Time
   69887    6.9855968e+07   0.000000e+00   0.000000e+00      7s

Solved in 69887 iterations and 7.47 seconds (4.40 work units)
Optimal objective  6.985596785e+07

No IIS available for current model


Gurobi 12.0.3 (win64, gurobi_cl) logging started Mon Aug 25 11:21:53 2025

Set parameter Username
Set parameter LicenseID to value 2688875
Set parameter LogFile to value "gurobi.log"
Using license file C:\Users\1496051\gurobi.lic
Academic license - for non-commercial use only - expires 2026-07-17

Gurobi Optimizer version 12.0.3 build v12.0.3rc0 (win64 - Windows 11.0 (22631.2))
Copyright (c) 2025, Gurobi Optimization, LLC

Read LP format model from file my_saved_model.lp
Reading time = 0.82 seconds
: 243447 rows, 145962 columns, 584158 nonzeros

Using Gurobi shared library C:\gurobi1203\win64\bin\gurobi120.dll

CPU model: Intel(R) Core(TM) Ultra 5 125U, instruction set [SSE2|AVX|AVX2]
Thread count: 12 physical cores, 14 logical processors, using up to 14 threads

Optimize a model with 243447 rows, 145962 columns and 584158 nonzeros
Model fingerprint: 0xc094fa67
Coefficient statistics:
  Matrix range     [1e-03, 4e+08]
  Objective range  [2e-01, 6e+04]
  Bounds range     [7e-01, 6e+03]
  RHS range        [2e+02, 1e+05]
Warning: Model contains large matrix coefficients
         Consider reformulating model or setting NumericFocus parameter
         to avoid numerical issues.
Presolve removed 115221 rows and 42735 columns
Presolve time: 0.06s

Solved in 0 iterations and 0.06 seconds (0.06 work units)
Infeasible model

Using Gurobi shared library C:\gurobi1203\win64\bin\gurobi120.dll

CPU model: Intel(R) Core(TM) Ultra 5 125U, instruction set [SSE2|AVX|AVX2]
Thread count: 12 physical cores, 14 logical processors, using up to 14 threads


IIS computed: 1 constraints and 3 bounds
IIS runtime: 0.01 seconds (0.00 work units)

Wrote result file 'result.ilp'

